src/ampl/s_wazona/wyniki/sw_efektywne.txt
#lambda  koszt       ryzyko
0.1000  11755.0000  2755.0000
1.7000  12050.0000  2390.0000
3.1000  12802.5000  1889.5000
4.6000  12838.0000  1873.8000
5.6000  12928.5000  1841.1000
6.1000  13018.0000  1810.8000
7.1000  13079.0000  1793.4000
7.8000  13138.5000  1778.1000
9.9000  14240.0000  1554.0000
